Route #1: 1 32 19 54 10 31 52 7 4 16 45 1
Route #2: 1 20 8 68 62 65 22 56 28 15 1
Route #3: 1 29 53 6 47 64 12 27 1
Route #4: 1 25 23 13 30 9 40 41 1
Route #5: 1 35 66 5 61 48 43 58 26 11 1
Route #6: 1 3 34 50 59 67 42 21 60 39 57 2 55 1
Route #7: 1 24 36 46 14 69 1
Route #8: 1 44 49 17 51 38 18 37 1
Route #9: 1 63 33 1
cost 1536
